8 28

6 8 18
2 4 24
4 5 28
1 2 25
3 4 23
2 8 27
3 7 33
5 7 32
3 5 19
2 7 31
1 3 31
4 7 17
7 8 19
1 4 18
4 8 14
1 5 36
3 8 15
6 7 30
1 6 27
3 6 20
2 5 35
1 7 12
5 6 36
1 8 20
2 3 14
4 6 22
2 6 18
5 8 20
